WARNING: for repeatability, setting FPU to use double precision
============================[ Problem Statistics ]=============================
|                                                                             |
|  Number of variables:            50                                         |
|  Number of clauses:             218                                         |
|  Parse time:                   0.00 s                                       |
|                                                                             |
============================[ Search Statistics ]==============================
| Conflicts |          ORIGINAL         |          LEARNT          | Progress |
|           |    Vars  Clauses Literals |    Limit  Clauses Lit/Cl |          |
===============================================================================
===============================================================================
restarts              : 1
conflicts             : 23             (16476 /sec)
decisions             : 37             (0.00 % random) (26504 /sec)
propagations          : 373            (267192 /sec)
conflict literals     : 116            (12.78 % deleted)
Memory used           : 20.00 MB
CPU time              : 0.001396 s

SATISFIABLE
